32	0

0	1	2
2	2	3	4
6	2	6	7
3	2	5	7
8	1	6
2	1	8
8	1	8
4	1	9
6	1	10
4	1	11
5	1	12
3	2	13	14
5	2	15	17
5	2	15	17
1	1	16
6	2	18	19
8	1	19
4	1	20
7	1	20
1	1	21
1	1	22
7	1	23
7	1	24
10	2	25	26
2	1	27
6	1	27
1	1	28
8	1	29
4	1	30
7	1	31
9	1	32
0	0
